100
32
7
6
2
18
20
6
18
8
23
18
3
18
1
3
16
14
16
17
18
17
19
1
24
18
17
1
24
22
10
27
19
8
19
7
25
6
18
24
19
23
1
9
3
5
3
29
19
21
8
25
4
21
16
11
5
15
1
16
4
16
1
21
5
24
15
15
4
3
15
2
2
1
20
23
5
4
20
10
19
16
14
14
14
20
15
25
11
11
13
22
1
4
6
14
3
4
15
2
13
2